DATASET = "thpack7";
INSTANCE = "071";

WIDTH = 233;
HEIGHT = 220;
LENGTH = 587;

NO_OF_SHAPES = 20;
size = [|
  99,64,62 |
  110,43,37 |
  96,73,50 |
  114,53,35 |
  105,27,22 |
  75,66,51 |
  72,61,48 |
  102,46,32 |
  59,57,45 |
  111,45,33 |
  90,74,58 |
  55,51,34 |
  98,73,21 |
  85,61,35 |
  41,35,31 |
  89,86,77 |
  61,55,47 |
  96,66,45 |
  98,79,58 |
  89,61,34 |
|];

verticality = [|
  1,1,1 |
  0,1,1 |
  1,1,1 |
  0,1,1 |
  0,1,1 |
  1,1,1 |
  1,1,1 |
  0,1,1 |
  1,1,1 |
  0,1,1 |
  1,1,1 |
  1,1,1 |
  0,0,1 |
  0,1,1 |
  1,1,1 |
  1,1,1 |
  1,1,1 |
  0,1,1 |
  1,1,1 |
  0,1,1 |
|];

box_count = [
  9,
  12,
  5,
  11,
  3,
  3,
  3,
  7,
  5,
  4,
  11,
  3,
  7,
  8,
  8,
  4,
  5,
  6,
  6,
  7,
];
